cpu-bind=MASK - n2lcn0129, task  0  0 [742383]: mask |--------|--------||--------|--------||--------|--------||--------|--------||||--------|--------||--------|BBBB----||--------|--------||--------|--------|  set
started at Fri Mar 17 12:18:50 CET 2023
Timecheck 10015677.847747335
Set parameter TokenServer to value "license3.uni-paderborn.de"
Warning: Gurobi version mismatch between Python 10.0.1 and C library 10.0.0
Timecheck 10015677.85114314
Timecheck 10015677.851367079
Timecheck 10015677.851397969
Timecheck 10015677.851418909


####################################################################################################
Solve scenario sce_3_26_3 with free vessel operation using the arc flow model
Vessels cannot omit ports, Demands can be rejected
####################################################################################################
Data preprocessing, load /upb/departments/pc2/groups/hpc-prf-winf4/dwetzel/SILSRP/inst_final/sce_3_26_3
and create additional sets and parameters
	|- Read vessel information, number of vessels:	10
	|- Read node information, number of nodes:		373
	|- Read arc information
		|- Number of sailing arcs:			1531
		|- Number of transshipment arcs:	724
	|- Read container information
		|- Number of demands:		740
		|- Number of empties (+/-):	159/156
	|- Create additional sets and parameters

Data preprocessing took 	00:00:00.264
####################################################################################################
Create linear model
Set parameter Threads to value 4
	|- Create variables, took	00:00:00.294
	|- Create objective, took	00:00:00.260
	|- Create constraints, took	00:00:01.164
	|- Load heuristic start

Creating model took	00:00:01.743
####################################################################################################
Fix start solution

Set parameter TimeLimit to value 8.6326621963690966e+04
Gurobi Optimizer version 10.0.0 build v10.0.0rc2 (linux64)

CPU model: AMD EPYC 7763 64-Core Processor, instruction set [SSE2|AVX|AVX2]
Thread count: 128 physical cores, 128 logical processors, using up to 4 threads

Optimize a model with 24502 rows, 83492 columns and 306572 nonzeros
Model fingerprint: 0x810ad558
Variable types: 67080 continuous, 16412 integer (16412 binary)
Coefficient statistics:
  Matrix range     [1e+00, 1e+06]
  Objective range  [1e+00, 1e+00]
  Bounds range     [1e+00, 2e+03]
  RHS range        [1e+00, 2e+08]
Presolve removed 21697 rows and 76256 columns
Presolve time: 0.20s
Presolved: 2805 rows, 7236 columns, 20602 nonzeros
Variable types: 6649 continuous, 587 integer (587 binary)
Found heuristic solution: objective 4.846283e+07

Root relaxation: objective 1.897218e+07, 957 iterations, 0.01 seconds (0.01 work units)

    Nodes    |    Current Node    |     Objective Bounds      |     Work
 Expl Unexpl |  Obj  Depth IntInf | Incumbent    BestBd   Gap | It/Node Time

*    0     0               0    1.897218e+07 1.8972e+07  0.00%     -    0s

Explored 1 nodes (957 simplex iterations) in 0.30 seconds (0.26 work units)
Thread count was 4 (of 128 available processors)

Solution count 2: 1.89722e+07 4.84628e+07 

Optimal solution found (tolerance 1.00e-04)
Best objective 1.897218500000e+07, best bound 1.897218500000e+07, gap 0.0000%

Fixing start solution took	00:00:02.091
####################################################################################################
####################################################################################################
Solve optimization model

Set parameter TimeLimit to value 8.6326303110340610e+04
Gurobi Optimizer version 10.0.0 build v10.0.0rc2 (linux64)

CPU model: AMD EPYC 7763 64-Core Processor, instruction set [SSE2|AVX|AVX2]
Thread count: 128 physical cores, 128 logical processors, using up to 4 threads

Optimize a model with 24130 rows, 83492 columns and 306200 nonzeros
Model fingerprint: 0x95bd8229
Variable types: 67080 continuous, 16412 integer (16412 binary)
Coefficient statistics:
  Matrix range     [1e+00, 1e+06]
  Objective range  [1e+00, 1e+00]
  Bounds range     [1e+00, 2e+03]
  RHS range        [1e+00, 2e+08]

MIP start from previous solve produced solution with objective 1.89722e+07 (0.20s)
Loaded MIP start from previous solve with objective 1.89722e+07

Presolve removed 5308 rows and 9315 columns
Presolve time: 0.78s
Presolved: 18822 rows, 74177 columns, 219684 nonzeros
Variable types: 59836 continuous, 14341 integer (14341 binary)
Deterministic concurrent LP optimizer: primal and dual simplex
Showing first log only...


Root simplex log...

Iteration    Objective       Primal Inf.    Dual Inf.      Time
   36202    1.8555715e+08   2.671646e+02   1.294596e+10      5s
   61505    1.8548708e+08   4.578636e+01   1.590302e+09     10s
   77694    1.8546788e+08   1.013822e+01   1.317945e+09     15s
   88065    5.1966846e+07   0.000000e+00   5.658830e+07     19s
   94404    1.8787064e+07   0.000000e+00   7.818007e+08     20s
  110256    1.7141580e+07   0.000000e+00   3.765689e+07     25s
  125227    1.6082852e+07   0.000000e+00   1.856131e+09     30s
  139863    1.5276348e+07   0.000000e+00   5.488797e+07     35s
  155325    1.4765159e+07   0.000000e+00   2.495952e+07     40s
  171468    1.4436095e+07   0.000000e+00   9.020337e+07     45s
  187434    1.4244141e+07   0.000000e+00   6.309103e+06     50s
  205244    1.4056277e+07   0.000000e+00   3.204146e+06     55s
Concurrent spin time: 0.00s

Solved with dual simplex

Root simplex log...

Iteration    Objective       Primal Inf.    Dual Inf.      Time
   94723    1.3767572e+07   0.000000e+00   0.000000e+00     60s

Root relaxation: objective 1.376757e+07, 94723 iterations, 58.53 seconds (49.51 work units)
Total elapsed time = 60.01s

    Nodes    |    Current Node    |     Objective Bounds      |     Work
 Expl Unexpl |  Obj  Depth IntInf | Incumbent    BestBd   Gap | It/Node Time

     0     0 1.3768e+07    0 2622 1.8972e+07 1.3768e+07  27.4%     -   60s
     0     0 1.4488e+07    0 2623 1.8972e+07 1.4488e+07  23.6%     -  137s
     0     0 1.4582e+07    0 2680 1.8972e+07 1.4582e+07  23.1%     -  194s
     0     0 1.4594e+07    0 2696 1.8972e+07 1.4594e+07  23.1%     -  213s
     0     0 1.4595e+07    0 2665 1.8972e+07 1.4595e+07  23.1%     -  220s
     0     0 1.4595e+07    0 2714 1.8972e+07 1.4595e+07  23.1%     -  221s
     0     0 1.4821e+07    0 2730 1.8972e+07 1.4821e+07  21.9%     -  333s
     0     0 1.4930e+07    0 2743 1.8972e+07 1.4930e+07  21.3%     -  439s
     0     0 1.4930e+07    0 2765 1.8972e+07 1.4930e+07  21.3%     -  452s
     0     0 1.4956e+07    0 2824 1.8972e+07 1.4956e+07  21.2%     -  512s
     0     0 1.4960e+07    0 2828 1.8972e+07 1.4960e+07  21.1%     -  536s
     0     0 1.4961e+07    0 2826 1.8972e+07 1.4961e+07  21.1%     -  548s
     0     0 1.4962e+07    0 2863 1.8972e+07 1.4962e+07  21.1%     -  553s
     0     0 1.4962e+07    0 2818 1.8972e+07 1.4962e+07  21.1%     -  570s
     0     0 1.5153e+07    0 2780 1.8972e+07 1.5153e+07  20.1%     -  712s
     0     0 1.5250e+07    0 2701 1.8972e+07 1.5250e+07  19.6%     -  836s
     0     0 1.5287e+07    0 2798 1.8972e+07 1.5287e+07  19.4%     -  923s
     0     0 1.5287e+07    0 2776 1.8972e+07 1.5287e+07  19.4%     -  925s
     0     0 1.5287e+07    0 2785 1.8972e+07 1.5287e+07  19.4%     -  925s
     0     0 1.5305e+07    0 2794 1.8972e+07 1.5305e+07  19.3%     -  986s
     0     0 1.5305e+07    0 2770 1.8972e+07 1.5305e+07  19.3%     -  986s
     0     0 1.5313e+07    0 2843 1.8972e+07 1.5313e+07  19.3%     - 1028s
     0     0 1.5320e+07    0 2777 1.8972e+07 1.5320e+07  19.3%     - 1066s
     0     0 1.5323e+07    0 2837 1.8972e+07 1.5323e+07  19.2%     - 1096s
     0     0 1.5324e+07    0 2808 1.8972e+07 1.5324e+07  19.2%     - 1110s
     0     0 1.5324e+07    0 2850 1.8972e+07 1.5324e+07  19.2%     - 1140s
     0     0 1.5325e+07    0 2807 1.8972e+07 1.5325e+07  19.2%     - 1152s
     0     0 1.5325e+07    0 2811 1.8972e+07 1.5325e+07  19.2%     - 1152s
     0     0 1.5325e+07    0 2812 1.8972e+07 1.5325e+07  19.2%     - 1156s
     0     0 1.5402e+07    0 2848 1.8972e+07 1.5402e+07  18.8%     - 1309s
     0     0 1.5454e+07    0 2753 1.8972e+07 1.5454e+07  18.5%     - 1423s
     0     0 1.5454e+07    0 2756 1.8972e+07 1.5454e+07  18.5%     - 1445s
     0     0 1.5477e+07    0 2687 1.8972e+07 1.5477e+07  18.4%     - 1526s
     0     0 1.5477e+07    0 2649 1.8972e+07 1.5477e+07  18.4%     - 1564s
     0     0 1.5481e+07    0 2712 1.8972e+07 1.5481e+07  18.4%     - 1602s
     0     0 1.5484e+07    0 2721 1.8972e+07 1.5484e+07  18.4%     - 1634s
     0     0 1.5486e+07    0 2738 1.8972e+07 1.5486e+07  18.4%     - 1658s
     0     0 1.5486e+07    0 2740 1.8972e+07 1.5486e+07  18.4%     - 1681s
     0     0 1.5486e+07    0 2755 1.8972e+07 1.5486e+07  18.4%     - 1715s
     0     0 1.5487e+07    0 2757 1.8972e+07 1.5487e+07  18.4%     - 1740s
     0     0 1.5521e+07    0 2655 1.8972e+07 1.5521e+07  18.2%     - 1849s
     0     0 1.5539e+07    0 2700 1.8972e+07 1.5539e+07  18.1%     - 1942s
     0     0 1.5543e+07    0 2715 1.8972e+07 1.5543e+07  18.1%     - 1977s
     0     0 1.5543e+07    0 2650 1.8972e+07 1.5543e+07  18.1%     - 2020s
     0     0 1.5545e+07    0 2708 1.8972e+07 1.5545e+07  18.1%     - 2041s
     0     0 1.5545e+07    0 2750 1.8972e+07 1.5545e+07  18.1%     - 2055s
     0     0 1.5546e+07    0 2715 1.8972e+07 1.5546e+07  18.1%     - 2108s
     0     0 1.5546e+07    0 2754 1.8972e+07 1.5546e+07  18.1%     - 2248s
     0     0 1.5572e+07    0 2674 1.8972e+07 1.5572e+07  17.9%     - 2345s
     0     0 1.5584e+07    0 2758 1.8972e+07 1.5584e+07  17.9%     - 2432s
     0     0 1.5588e+07    0 2667 1.8972e+07 1.5588e+07  17.8%     - 2469s
     0     0 1.5591e+07    0 2743 1.8972e+07 1.5591e+07  17.8%     - 2508s
     0     0 1.5592e+07    0 2751 1.8972e+07 1.5592e+07  17.8%     - 2531s
     0     0 1.5592e+07    0 2697 1.8972e+07 1.5592e+07  17.8%     - 2533s
     0     0 1.5592e+07    0 2748 1.8972e+07 1.5592e+07  17.8%     - 2544s
     0     0 1.5607e+07    0 2614 1.8972e+07 1.5607e+07  17.7%     - 2615s
     0     0 1.5615e+07    0 2664 1.8972e+07 1.5615e+07  17.7%     - 2685s
     0     0 1.5618e+07    0 2638 1.8972e+07 1.5618e+07  17.7%     - 2731s
     0     0 1.5618e+07    0 2657 1.8972e+07 1.5618e+07  17.7%     - 2764s
     0     0 1.5619e+07    0 2692 1.8972e+07 1.5619e+07  17.7%     - 2788s
     0     0 1.5620e+07    0 2738 1.8972e+07 1.5620e+07  17.7%     - 2802s
     0     0 1.5623e+07    0 2622 1.8972e+07 1.5623e+07  17.7%     - 2842s
     0     0 1.5624e+07    0 2606 1.8972e+07 1.5624e+07  17.6%     - 2877s
     0     0 1.5625e+07    0 2649 1.8972e+07 1.5625e+07  17.6%     - 2899s
     0     0 1.5630e+07    0 2675 1.8972e+07 1.5630e+07  17.6%     - 2953s
     0     0 1.5630e+07    0 2675 1.8972e+07 1.5630e+07  17.6%     - 2953s
     0     0 1.5630e+07    0 2674 1.8972e+07 1.5630e+07  17.6%     - 2954s
     0     2 1.5630e+07    0 2666 1.8972e+07 1.5630e+07  17.6%     - 3043s
     1     4 1.5666e+07    1 2688 1.8972e+07 1.5630e+07  17.6% 43153 3234s
     3     8 1.5673e+07    2 2620 1.8972e+07 1.5641e+07  17.6% 32594 3462s
     7    12 1.5711e+07    3 2623 1.8972e+07 1.5660e+07  17.5% 47515 3662s
    11    16 1.5707e+07    3 2510 1.8972e+07 1.5660e+07  17.5% 43306 3847s
    15    20 1.5720e+07    4 2455 1.8972e+07 1.5668e+07  17.4% 45286 3913s
    19    24 1.5723e+07    5 2380 1.8972e+07 1.5668e+07  17.4% 40248 3993s
    23    28 1.5818e+07    5 2437 1.8972e+07 1.5668e+07  17.4% 37744 4163s
    27    32 1.5725e+07    6 2528 1.8972e+07 1.5668e+07  17.4% 36172 4342s
    31    36 1.6031e+07    6 2459 1.8972e+07 1.5668e+07  17.4% 35243 4649s
    35    41 1.5728e+07    7 2498 1.8972e+07 1.5668e+07  17.4% 34088 4968s
    40    47 1.5743e+07    8 2543 1.8972e+07 1.5668e+07  17.4% 33946 5282s
    46    52 1.5854e+07    8 2408 1.8972e+07 1.5668e+07  17.4% 32896 5405s
    51    58 1.5789e+07    9 2374 1.8972e+07 1.5668e+07  17.4% 32015 5952s
    57    64 1.5758e+07    9 2496 1.8972e+07 1.5668e+07  17.4% 31319 6286s
    63    74 1.5763e+07   10 2473 1.8972e+07 1.5668e+07  17.4% 30003 6546s
    73    79 1.5778e+07   12 2447 1.8972e+07 1.5668e+07  17.4% 28588 7384s
    78    84 1.5892e+07   12 2415 1.8972e+07 1.5668e+07  17.4% 30850 7842s
    83    97 1.5793e+07   13 2417 1.8972e+07 1.5668e+07  17.4% 31149 7997s
    96   102 1.5795e+07   15 2388 1.8972e+07 1.5668e+07  17.4% 28215 8272s
   101   112 1.5807e+07   17 2372 1.8972e+07 1.5668e+07  17.4% 27607 8480s
   111   126 1.5828e+07   20 2260 1.8972e+07 1.5668e+07  17.4% 26575 8700s
   125   137 1.5834e+07   24 2224 1.8972e+07 1.5668e+07  17.4% 25038 9347s
   136   150 1.5900e+07   27 2213 1.8972e+07 1.5668e+07  17.4% 25596 9604s
   149   160 1.5902e+07   29 2178 1.8972e+07 1.5668e+07  17.4% 24826 10031s
   159   175 1.5931e+07   30 2166 1.8972e+07 1.5668e+07  17.4% 24873 10267s
   174   190 1.5921e+07   32 2151 1.8972e+07 1.5668e+07  17.4% 23910 10756s
   189   196 1.5928e+07   34 2147 1.8972e+07 1.5668e+07  17.4% 23319 11220s
   195   209 1.5985e+07   35 2112 1.8972e+07 1.5668e+07  17.4% 24279 11727s
   208   214 1.6138e+07   36 2072 1.8972e+07 1.5668e+07  17.4% 23998 12092s
   213   222 1.6017e+07   37 2066 1.8972e+07 1.5668e+07  17.4% 24362 12642s
   221   231 1.6055e+07   38 2080 1.8972e+07 1.5668e+07  17.4% 24512 13437s
   230   243 1.6184e+07   39 2061 1.8972e+07 1.5668e+07  17.4% 25079 13925s
   242   257 1.6145e+07   40 2086 1.8972e+07 1.5668e+07  17.4% 24872 14324s
   246   257 1.6064e+07   50 1996 1.8972e+07 1.5668e+07  17.4% 24703 14325s
   256   266 1.6300e+07   42 2037 1.8972e+07 1.5668e+07  17.4% 24703 15041s
   265   274 1.6387e+07   44 1907 1.8972e+07 1.5668e+07  17.4% 25174 16163s
H  267   274                    1.892388e+07 1.5668e+07  17.2% 25155 16163s
   273   283 1.6189e+07   45 1983 1.8924e+07 1.5668e+07  17.2% 26066 16742s
H  282   291                    1.883651e+07 1.5668e+07  16.8% 26404 17302s
   290   311 1.6337e+07   48 1891 1.8837e+07 1.5668e+07  16.8% 26597 17966s
   310   325 1.6422e+07   51 1848 1.8837e+07 1.5668e+07  16.8% 26122 18661s
   324   338 1.6394e+07   52 1849 1.8837e+07 1.5668e+07  16.8% 26192 19614s
   337   354 1.6420e+07   56 1928 1.8837e+07 1.5668e+07  16.8% 26401 20367s
   353   372 1.6573e+07   59 1912 1.8837e+07 1.5668e+07  16.8% 26412 21081s
   371   389 1.6839e+07   61 1818 1.8837e+07 1.5668e+07  16.8% 26319 21829s
   390   407 1.6973e+07   64 1811 1.8837e+07 1.5668e+07  16.8% 26539 22599s
H  392   407                    1.883550e+07 1.5668e+07  16.8% 26524 22599s
   408   428 1.6996e+07   65 1747 1.8835e+07 1.5668e+07  16.8% 26517 23385s
H  409   428                    1.883545e+07 1.5668e+07  16.8% 26452 23385s
   429   450 1.7048e+07   68 1737 1.8835e+07 1.5668e+07  16.8% 26427 24356s
   451   470 1.7122e+07   71 1706 1.8835e+07 1.5668e+07  16.8% 26425 25075s
   471   500 1.7093e+07   74 1691 1.8835e+07 1.5668e+07  16.8% 26506 25846s
   501   533 1.7214e+07   82 1649 1.8835e+07 1.5668e+07  16.8% 26048 26830s
H  534   569                    1.883407e+07 1.5668e+07  16.8% 25828 27774s
H  570   612                    1.882410e+07 1.5668e+07  16.8% 25487 28793s
   613   653 1.7487e+07  111 1583 1.8824e+07 1.5668e+07  16.8% 24986 29702s
   654   688 1.7722e+07  116 1462 1.8824e+07 1.5668e+07  16.8% 24659 30578s
   693   754 1.8292e+07  122 1310 1.8824e+07 1.5668e+07  16.8% 24342 31380s
   761   807 1.8440e+07  135 1251 1.8824e+07 1.5668e+07  16.8% 23436 32401s
   822   889 1.8650e+07  152 1178 1.8824e+07 1.5669e+07  16.8% 22822 33500s
   918   900 1.5737e+07    6 2423 1.8824e+07 1.5673e+07  16.7% 21625 34785s
   929   953 1.5832e+07    9 2310 1.8824e+07 1.5673e+07  16.7% 21755 35245s
   985  1012 1.5874e+07   11 2341 1.8824e+07 1.5673e+07  16.7% 21338 35953s
  1052  1067 1.6114e+07   12 2217 1.8824e+07 1.5673e+07  16.7% 21023 36578s
  1107  1146 1.5934e+07   13 2367 1.8824e+07 1.5673e+07  16.7% 20748 37968s
  1188  1220 1.6412e+07   18 2083 1.8824e+07 1.5673e+07  16.7% 20244 39224s
  1289  1298 1.6204e+07   29 2099 1.8824e+07 1.5673e+07  16.7% 19378 40140s
  1368  1299 1.7673e+07  113 2674 1.8824e+07 1.5673e+07  16.7% 18833 40900s
  1370  1300 1.5851e+07   22 2658 1.8824e+07 1.5673e+07  16.7% 18806 41057s
  1371  1301 1.6831e+07   56 2643 1.8824e+07 1.5673e+07  16.7% 18792 41163s
  1372  1302 1.8229e+07  122 2661 1.8824e+07 1.5673e+07  16.7% 18778 41293s
  1373  1302 1.7095e+07  114 2646 1.8824e+07 1.5673e+07  16.7% 18765 41447s
  1374  1303 1.7115e+07   92 2664 1.8824e+07 1.5673e+07  16.7% 18751 41635s
  1375  1304 1.6024e+07   45 2645 1.8824e+07 1.5673e+07  16.7% 18738 41795s
  1376  1304 1.7918e+07   98 2631 1.8824e+07 1.5673e+07  16.7% 18724 41962s
  1377  1305 1.7732e+07  168 2549 1.8824e+07 1.5673e+07  16.7% 18710 42108s
  1378  1306 1.6660e+07   67 2701 1.8824e+07 1.5673e+07  16.7% 18697 42294s
  1379  1306 1.7496e+07  145 2642 1.8824e+07 1.5673e+07  16.7% 18683 42426s
  1380  1307 1.7203e+07   66 2516 1.8824e+07 1.5673e+07  16.7% 18670 42513s
  1381  1308 1.6271e+07   62 2552 1.8824e+07 1.5673e+07  16.7% 18656 42597s
  1382  1308 1.7550e+07  107 2578 1.8824e+07 1.5673e+07  16.7% 18643 42692s
  1383  1309 1.6138e+07   37 2554 1.8824e+07 1.5673e+07  16.7% 18629 42830s
  1384  1310 1.5940e+07   13 2648 1.8824e+07 1.5673e+07  16.7% 18616 42891s
  1385  1310 1.7487e+07  112 2606 1.8824e+07 1.5673e+07  16.7% 18602 42926s
  1386  1311 1.5728e+07   12 2644 1.8824e+07 1.5673e+07  16.7% 18589 42943s
  1387  1312 1.8602e+07  191 2633 1.8824e+07 1.5673e+07  16.7% 18575 42958s
  1388  1312 1.6487e+07   17 2675 1.8824e+07 1.5673e+07  16.7% 18562 42973s
  1389  1313 1.6144e+07   97 2550 1.8824e+07 1.5673e+07  16.7% 18549 43114s
  1390  1314 1.6832e+07   59 2640 1.8824e+07 1.5673e+07  16.7% 18535 43191s
  1391  1314 1.5795e+07   15 2638 1.8824e+07 1.5676e+07  16.7% 18522 43227s
  1392  1315 1.7257e+07   71 2586 1.8824e+07 1.5677e+07  16.7% 18509 43251s
  1393  1316 1.6369e+07   49 2579 1.8824e+07 1.5677e+07  16.7% 18495 43264s
  1394  1316 1.6464e+07   55 2558 1.8824e+07 1.5677e+07  16.7% 18482 43281s
  1395  1317 1.6093e+07   25 2534 1.8824e+07 1.5683e+07  16.7% 18469 43364s
  1396  1318 1.6384e+07   58 2509 1.8824e+07 1.5685e+07  16.7% 18456 44103s
  1397  1318 1.5795e+07    7 2526 1.8824e+07 1.5686e+07  16.7% 18442 44229s
  1398  1319 1.7681e+07  162 2580 1.8824e+07 1.5686e+07  16.7% 18429 44259s
  1399  1320 1.8194e+07  161 2572 1.8824e+07 1.5687e+07  16.7% 18416 44283s
  1400  1320 1.6464e+07   55 2562 1.8824e+07 1.5687e+07  16.7% 18403 44318s
  1401  1321 1.7605e+07  101 2525 1.8824e+07 1.5695e+07  16.6% 18390 44422s
  1402  1322 1.8059e+07  123 2550 1.8824e+07 1.5697e+07  16.6% 18377 44468s
  1403  1322 1.8003e+07  133 2481 1.8824e+07 1.5697e+07  16.6% 18364 44493s
  1404  1323 1.7908e+07  112 2598 1.8824e+07 1.5698e+07  16.6% 18350 44508s
  1405  1324 1.6766e+07   42 2560 1.8824e+07 1.5698e+07  16.6% 18337 44526s
  1406  1324 1.7496e+07  114 2548 1.8824e+07 1.5701e+07  16.6% 18324 44601s
  1407  1325 1.7649e+07  100 2480 1.8824e+07 1.5701e+07  16.6% 18311 44703s
  1408  1326 1.6473e+07   55 2527 1.8824e+07 1.5702e+07  16.6% 18298 44721s
  1409  1326 1.6055e+07   13 2504 1.8824e+07 1.5704e+07  16.6% 18285 44781s
  1410  1327 1.7670e+07   91 2574 1.8824e+07 1.5704e+07  16.6% 18272 44801s
  1411  1328 1.5751e+07   13 2520 1.8824e+07 1.5704e+07  16.6% 18259 44816s
  1412  1328 1.5964e+07   41 2435 1.8824e+07 1.5705e+07  16.6% 18247 44857s
  1413  1329 1.6491e+07   20 2486 1.8824e+07 1.5705e+07  16.6% 18234 44870s
  1414  1330 1.5741e+07    9 2491 1.8824e+07 1.5705e+07  16.6% 18221 44882s
  1415  1330 1.8576e+07  215 2490 1.8824e+07 1.5706e+07  16.6% 18208 44967s
  1416  1331 1.7095e+07  114 2496 1.8824e+07 1.5707e+07  16.6% 18195 45003s
  1417  1332 1.7151e+07   64 2506 1.8824e+07 1.5707e+07  16.6% 18182 45110s
  1418  1332 1.6947e+07   78 2523 1.8824e+07 1.5707e+07  16.6% 18169 45129s
  1419  1333 1.5716e+07    6 2511 1.8824e+07 1.5708e+07  16.6% 18157 45152s
  1420  1334 1.8561e+07  204 2501 1.8824e+07 1.5708e+07  16.6% 18144 45164s
  1421  1334 1.6509e+07   52 2539 1.8824e+07 1.5708e+07  16.6% 18131 45179s
  1422  1335 1.7720e+07  166 2502 1.8824e+07 1.5709e+07  16.6% 18118 45192s
  1423  1336 1.5832e+07   22 2498 1.8824e+07 1.5709e+07  16.6% 18105 45278s
  1424  1336 1.5770e+07   18 2498 1.8824e+07 1.5709e+07  16.6% 18093 45324s
  1425  1340 1.5712e+07   14 2544 1.8824e+07 1.5709e+07  16.6% 19104 45472s
  1427  1343 1.5716e+07   15 2442 1.8824e+07 1.5712e+07  16.5% 19114 46116s
  1431  1346 1.5720e+07   16 2526 1.8824e+07 1.5716e+07  16.5% 19244 46252s
  1435  1349 1.5764e+07   16 2424 1.8824e+07 1.5720e+07  16.5% 19322 46372s
  1439  1351 1.5738e+07   17 2408 1.8824e+07 1.5720e+07  16.5% 19448 46542s
  1443  1354 1.5735e+07   17 2445 1.8824e+07 1.5732e+07  16.4% 19484 46629s
  1447  1358 1.5993e+07   18 2249 1.8824e+07 1.5735e+07  16.4% 19619 46992s
  1452  1360 1.5743e+07   18 2467 1.8824e+07 1.5738e+07  16.4% 19624 47184s
  1456  1365 1.5750e+07   19 2452 1.8824e+07 1.5738e+07  16.4% 19640 47250s
  1462  1368 1.5918e+07   19 2460 1.8824e+07 1.5738e+07  16.4% 19672 47636s
  1467  1371 1.5757e+07   20 2424 1.8824e+07 1.5738e+07  16.4% 19727 47856s
  1472  1373 1.5794e+07   20 2437 1.8824e+07 1.5738e+07  16.4% 19800 48133s
  1476  1377 1.5773e+07   21 2454 1.8824e+07 1.5738e+07  16.4% 19870 48389s
  1481  1382 1.5767e+07   21 2477 1.8824e+07 1.5738e+07  16.4% 19944 48592s
  1488  1387 1.5767e+07   22 2460 1.8824e+07 1.5738e+07  16.4% 19963 48957s
  1495  1389 1.5779e+07   23 2402 1.8824e+07 1.5738e+07  16.4% 20071 49172s
  1499  1392 1.5836e+07   23 2459 1.8824e+07 1.5738e+07  16.4% 20174 49481s
  1504  1397 1.5798e+07   24 2443 1.8824e+07 1.5738e+07  16.4% 20286 49710s
  1510  1402 1.5795e+07   24 2351 1.8824e+07 1.5738e+07  16.4% 20335 50005s
  1517  1403 1.5858e+07   25 2319 1.8824e+07 1.5738e+07  16.4% 20395 50610s
  1523  1409 1.5809e+07   25 2321 1.8824e+07 1.5738e+07  16.4% 20463 50960s
  1531  1413 1.6267e+07   26 2310 1.8824e+07 1.5738e+07  16.4% 20597 51512s
  1537  1418 1.5841e+07   27 2323 1.8824e+07 1.5738e+07  16.4% 20669 52023s
  1544  1428 1.5863e+07   28 2209 1.8824e+07 1.5738e+07  16.4% 20768 52469s
  1548  1427 1.5981e+07   30 2162 1.8824e+07 1.5738e+07  16.4% 20795 52470s
  1557  1434 1.5940e+07   29 2251 1.8824e+07 1.5738e+07  16.4% 20809 52821s
  1567  1437 1.5967e+07   30 2322 1.8824e+07 1.5738e+07  16.4% 20867 53688s
  1573  1443 1.6004e+07   31 2352 1.8824e+07 1.5738e+07  16.4% 20988 54415s
  1581  1452 1.6113e+07   32 2227 1.8824e+07 1.5738e+07  16.4% 21117 54778s
  1593  1456 1.6185e+07   33 2140 1.8824e+07 1.5738e+07  16.4% 21174 55636s
  1601  1464 1.6210e+07   34 2208 1.8824e+07 1.5738e+07  16.4% 21418 56020s
  1612  1473 1.6023e+07   34 2340 1.8824e+07 1.5738e+07  16.4% 21476 56621s
  1624  1480 1.6087e+07   35 2404 1.8824e+07 1.5738e+07  16.4% 21605 57168s
  1635  1493 1.6358e+07   36 2191 1.8824e+07 1.5738e+07  16.4% 21688 57733s
  1652  1506 1.6411e+07   38 1993 1.8824e+07 1.5738e+07  16.4% 21706 58245s
  1671  1518 1.6419e+07   41 1928 1.8824e+07 1.5738e+07  16.4% 21679 58794s
  1689  1522 1.6419e+07   42 1878 1.8824e+07 1.5738e+07  16.4% 21690 59641s
  1699  1535 1.6600e+07   43 1903 1.8824e+07 1.5738e+07  16.4% 21830 60343s
  1717  1549 infeasible   44      1.8824e+07 1.5738e+07  16.4% 21853 61014s
  1722  1547 1.6478e+07   54 1807 1.8824e+07 1.5738e+07  16.4% 21876 61015s
  1739  1562 1.6463e+07   47 2039 1.8824e+07 1.5738e+07  16.4% 21929 61617s
  1760  1580 1.6503e+07   49 1974 1.8824e+07 1.5738e+07  16.4% 22022 62205s
  1785  1595 1.6504e+07   50 1920 1.8824e+07 1.5738e+07  16.4% 22026 62889s
  1808  1613 1.6550e+07   53 1966 1.8824e+07 1.5738e+07  16.4% 22084 63739s
  1834  1631 1.6561e+07   56 1886 1.8824e+07 1.5738e+07  16.4% 22149 64673s
  1860  1649 1.6564e+07   59 1828 1.8824e+07 1.5738e+07  16.4% 22229 65755s
  1887  1671 1.6564e+07   62 1824 1.8824e+07 1.5738e+07  16.4% 22307 66616s
  1918  1699 1.6566e+07   65 1767 1.8824e+07 1.5738e+07  16.4% 22327 67487s
  1956  1724 1.6785e+07   68 1775 1.8824e+07 1.5738e+07  16.4% 22330 68446s
  1994  1754 1.6576e+07   71 1852 1.8824e+07 1.5738e+07  16.4% 22269 69490s
  2037  1787 1.6577e+07   76 1899 1.8824e+07 1.5738e+07  16.4% 22167 70793s
  2086  1817 1.6591e+07   80 1877 1.8824e+07 1.5738e+07  16.4% 22116 71810s
  2132  1853 1.6593e+07   84 1810 1.8824e+07 1.5738e+07  16.4% 22026 73038s
  2184  1887 1.6597e+07   88 1890 1.8824e+07 1.5738e+07  16.4% 21969 74274s
  2237  1913 1.6608e+07   93 1897 1.8824e+07 1.5738e+07  16.4% 21937 75451s
  2281  1947 1.6613e+07   97 1883 1.8824e+07 1.5738e+07  16.4% 21858 76799s
  2354  1982 1.6620e+07  102 1880 1.8824e+07 1.5738e+07  16.4% 21640 77397s
H 2406  1897                    1.876004e+07 1.5738e+07  16.1% 21518 77397s
  2416  1952 1.6645e+07  108 1864 1.8760e+07 1.5738e+07  16.1% 21523 78303s
H 2417  1886                    1.873732e+07 1.5738e+07  16.0% 21514 78303s
H 2453  1806                    1.861293e+07 1.5738e+07  15.4% 21492 78303s
  2474  1865 1.6649e+07  113 1817 1.8613e+07 1.5738e+07  15.4% 21430 79030s
  2544  1917 1.6945e+07  117 1713 1.8613e+07 1.5738e+07  15.4% 21344 79819s
  2625  1969 1.6722e+07  122 1801 1.8613e+07 1.5738e+07  15.4% 21127 80738s
  2716  1993 1.6762e+07  127 1661 1.8613e+07 1.5738e+07  15.4% 20927 82299s
  2806  2025 1.6744e+07  133 1761 1.8613e+07 1.5738e+07  15.4% 20752 83610s
  2882  2109 1.6758e+07  140 1816 1.8613e+07 1.5738e+07  15.4% 20665 85116s
  3018  2128 1.6761e+07  148 1807 1.8613e+07 1.5738e+07  15.4% 20230 86326s

Cutting planes:
  Gomory: 2
  Cover: 4
  Implied bound: 642
  Projected implied bound: 114
  Clique: 2
  MIR: 463
  StrongCG: 1
  Flow cover: 2974
  GUB cover: 1
  RLT: 324
  Relax-and-lift: 1389

Explored 3102 nodes (63630319 simplex iterations) in 86326.34 seconds (76644.81 work units)
Thread count was 4 (of 128 available processors)

Solution count 7: 1.86129e+07 1.87373e+07 1.88241e+07 ... 1.89722e+07

Time limit reached
Best objective 1.861292899998e+07, best bound 1.573767691189e+07, gap 15.4476%

Solving took 	23:58:46.345
####################################################################################################
####################################################################################################
####################################################################################################
Reached timelimit, but could find a feasible solution
####################################################################################################
Description                          Value
----------------------------  ------------
Objective (min)               18,612,929.0
Cost sailing                  14,821,539.0
Cost port visits               8,133,691.0
Cost transshipment (demands)     899,275.0
Cost transshipment (empties)     531,501.0
Penalty delayed demands        2,171,013.0
Revenue Empties                8,000,130.0
Penalty rejected demands          56,040.0
Rejected demands (%)                  0.08
Omitted ports (%)                      0.0
Gap (%)                              15.45
####################################################################################################
Export solution
####################################################################################################
Overall time 	23:58:48.843

real	1438m50.708s
user	4215m19.016s
sys	0m34.960s
finished at Sat Mar 18 12:17:41 CET 2023
